NAME
ROWS
 N  OBJ
 G  c1
 G  c2
 G  c3
 G  c4
 G  c5
 G  c6
 G  c7
 G  c8
 G  c9
 G  c10
 G  c11
 G  c12
 G  c13
 G  c14
 G  c15
 G  c16
 G  c17
 G  c18
 G  c19
 G  c20
 G  c21
 G  c22
 G  c23
 G  c24
 G  c25
 G  c26
 G  c27
 G  c28
 G  c29
 G  c30
 G  c31
 G  c32
 G  c33
 G  c34
 G  c35
 G  c36
 G  c37
 G  c38
 G  c39
 G  c40
 G  c41
 G  c42
 G  c43
 G  c44
 G  c45
 G  c46
 G  c47
 G  c48
 G  c49
 G  c50
 G  c51
 G  c52
 G  c53
 G  c54
 G  c55
 G  c56
 G  c57
 G  c58
 G  c59
 G  c60
 G  c61
 G  c62
 G  c63
 G  c64
 G  c65
 G  c66
 G  c67
 G  c68
 G  c69
 G  c70
 G  c71
 G  c72
 G  c73
 G  c74
 G  c75
 G  c76
 G  c77
 G  c78
 G  c79
 G  c80
 G  c81
 G  c82
 G  c83
 G  c84
 G  c85
 G  c86
 G  c87
 G  c88
 G  c89
 G  c90
 G  c91
 G  c92
 G  c93
 G  c94
 G  c95
 G  c96
 G  c97
 G  c98
 G  c99
 G  c100
COLUMNS
    MARKER    'MARKER'                 'INTORG'
    x[1]      c1        1
    x[1]      c13       1
    x[1]      c31       1
    x[1]      c36       1
    x[1]      c40       1
    x[1]      c63       1
    x[1]      c68       1
    x[1]      c72       1
    x[1]      c90       1
    x[1]      c93       1
    x[1]      c95       1
    x[1]      OBJ       1
    x[2]      c2        1
    x[2]      c5        1
    x[2]      c8        1
    x[2]      c42       1
    x[2]      c65       1
    x[2]      c69       1
    x[2]      c100      1
    x[2]      OBJ       1
    x[3]      c3        1
    x[3]      c9        1
    x[3]      c10       1
    x[3]      c15       1
    x[3]      c41       1
    x[3]      c48       1
    x[3]      c55       1
    x[3]      c64       1
    x[3]      OBJ       1
    x[4]      c4        1
    x[4]      c7        1
    x[4]      c23       1
    x[4]      c33       1
    x[4]      c37       1
    x[4]      c38       1
    x[4]      c50       1
    x[4]      c59       1
    x[4]      c66       1
    x[4]      c84       1
    x[4]      c86       1
    x[4]      c87       1
    x[4]      c91       1
    x[4]      c93       1
    x[4]      OBJ       1
    x[5]      c2        1
    x[5]      c5        1
    x[5]      c13       1
    x[5]      c27       1
    x[5]      c34       1
    x[5]      c58       1
    x[5]      c62       1
    x[5]      c73       1
    x[5]      c80       1
    x[5]      c86       1
    x[5]      c95       1
    x[5]      OBJ       1
    x[6]      c6        1
    x[6]      c13       1
    x[6]      c14       1
    x[6]      c20       1
    x[6]      c33       1
    x[6]      c43       1
    x[6]      c57       1
    x[6]      c67       1
    x[6]      c70       1
    x[6]      c76       1
    x[6]      c84       1
    x[6]      c85       1
    x[6]      c90       1
    x[6]      OBJ       1
    x[7]      c4        1
    x[7]      c7        1
    x[7]      c15       1
    x[7]      c16       1
    x[7]      c18       1
    x[7]      c25       1
    x[7]      c33       1
    x[7]      c37       1
    x[7]      c53       1
    x[7]      c54       1
    x[7]      c61       1
    x[7]      c64       1
    x[7]      c67       1
    x[7]      c71       1
    x[7]      c79       1
    x[7]      c85       1
    x[7]      c100      1
    x[7]      OBJ       1
    x[8]      c2        1
    x[8]      c8        1
    x[8]      c18       1
    x[8]      c29       1
    x[8]      c54       1
    x[8]      c60       1
    x[8]      c63       1
    x[8]      c74       1
    x[8]      c82       1
    x[8]      c86       1
    x[8]      c91       1
    x[8]      OBJ       1
    x[9]      c3        1
    x[9]      c9        1
    x[9]      c10       1
    x[9]      c11       1
    x[9]      c13       1
    x[9]      c15       1
    x[9]      c18       1
    x[9]      c22       1
    x[9]      c27       1
    x[9]      c52       1
    x[9]      c55       1
    x[9]      c68       1
    x[9]      OBJ       1
    x[10]     c3        1
    x[10]     c9        1
    x[10]     c10       1
    x[10]     c22       1
    x[10]     c37       1
    x[10]     c47       1
    x[10]     c48       1
    x[10]     c58       1
    x[10]     c67       1
    x[10]     c69       1
    x[10]     c86       1
    x[10]     c93       1
    x[10]     OBJ       1
    x[11]     c9        1
    x[11]     c11       1
    x[11]     c19       1
    x[11]     c21       1
    x[11]     c35       1
    x[11]     c36       1
    x[11]     c40       1
    x[11]     c45       1
    x[11]     c51       1
    x[11]     c55       1
    x[11]     c61       1
    x[11]     c65       1
    x[11]     c72       1
    x[11]     c74       1
    x[11]     c76       1
    x[11]     c82       1
    x[11]     c86       1
    x[11]     c97       1
    x[11]     OBJ       1
    x[12]     c12       1
    x[12]     c27       1
    x[12]     c35       1
    x[12]     c53       1
    x[12]     c74       1
    x[12]     c84       1
    x[12]     c94       1
    x[12]     OBJ       1
    x[13]     c1        1
    x[13]     c5        1
    x[13]     c6        1
    x[13]     c9        1
    x[13]     c13       1
    x[13]     c18       1
    x[13]     c29       1
    x[13]     c52       1
    x[13]     c64       1
    x[13]     c69       1
    x[13]     c75       1
    x[13]     c83       1
    x[13]     c95       1
    x[13]     OBJ       1
    x[14]     c6        1
    x[14]     c14       1
    x[14]     c29       1
    x[14]     c34       1
    x[14]     c45       1
    x[14]     c57       1
    x[14]     c68       1
    x[14]     c69       1
    x[14]     c76       1
    x[14]     c89       1
    x[14]     c94       1
    x[14]     OBJ       1
    x[15]     c3        1
    x[15]     c7        1
    x[15]     c9        1
    x[15]     c15       1
    x[15]     c16       1
    x[15]     c33       1
    x[15]     c37       1
    x[15]     c38       1
    x[15]     c55       1
    x[15]     c60       1
    x[15]     c81       1
    x[15]     c82       1
    x[15]     c85       1
    x[15]     c87       1
    x[15]     c91       1
    x[15]     c96       1
    x[15]     c97       1
    x[15]     OBJ       1
    x[16]     c7        1
    x[16]     c15       1
    x[16]     c16       1
    x[16]     c20       1
    x[16]     c26       1
    x[16]     c27       1
    x[16]     c41       1
    x[16]     c62       1
    x[16]     c85       1
    x[16]     c86       1
    x[16]     c97       1
    x[16]     c100      1
    x[16]     OBJ       1
    x[17]     c17       1
    x[17]     c19       1
    x[17]     c26       1
    x[17]     c64       1
    x[17]     c82       1
    x[17]     c84       1
    x[17]     c94       1
    x[17]     c100      1
    x[17]     OBJ       1
    x[18]     c7        1
    x[18]     c8        1
    x[18]     c9        1
    x[18]     c13       1
    x[18]     c18       1
    x[18]     c23       1
    x[18]     c24       1
    x[18]     c33       1
    x[18]     c41       1
    x[18]     c47       1
    x[18]     c48       1
    x[18]     c76       1
    x[18]     c86       1
    x[18]     c97       1
    x[18]     OBJ       1
    x[19]     c11       1
    x[19]     c17       1
    x[19]     c19       1
    x[19]     c22       1
    x[19]     c25       1
    x[19]     c42       1
    x[19]     c47       1
    x[19]     c55       1
    x[19]     c64       1
    x[19]     c72       1
    x[19]     c81       1
    x[19]     c100      1
    x[19]     OBJ       1
    x[20]     c6        1
    x[20]     c16       1
    x[20]     c20       1
    x[20]     c44       1
    x[20]     c53       1
    x[20]     c62       1
    x[20]     c71       1
    x[20]     c87       1
    x[20]     c89       1
    x[20]     OBJ       1
    x[21]     c11       1
    x[21]     c21       1
    x[21]     c54       1
    x[21]     c63       1
    x[21]     c67       1
    x[21]     c93       1
    x[21]     c97       1
    x[21]     c100      1
    x[21]     OBJ       1
    x[22]     c9        1
    x[22]     c10       1
    x[22]     c19       1
    x[22]     c22       1
    x[22]     c28       1
    x[22]     c33       1
    x[22]     c39       1
    x[22]     c58       1
    x[22]     c70       1
    x[22]     c74       1
    x[22]     c81       1
    x[22]     c83       1
    x[22]     c88       1
    x[22]     OBJ       1
    x[23]     c4        1
    x[23]     c18       1
    x[23]     c23       1
    x[23]     c26       1
    x[23]     c35       1
    x[23]     c37       1
    x[23]     c51       1
    x[23]     c52       1
    x[23]     c59       1
    x[23]     c67       1
    x[23]     c70       1
    x[23]     c71       1
    x[23]     c77       1
    x[23]     c95       1
    x[23]     OBJ       1
    x[24]     c18       1
    x[24]     c24       1
    x[24]     c56       1
    x[24]     c88       1
    x[24]     c99       1
    x[24]     c100      1
    x[24]     OBJ       1
    x[25]     c7        1
    x[25]     c19       1
    x[25]     c25       1
    x[25]     c35       1
    x[25]     c43       1
    x[25]     c64       1
    x[25]     c68       1
    x[25]     c70       1
    x[25]     c89       1
    x[25]     c99       1
    x[25]     OBJ       1
    x[26]     c16       1
    x[26]     c17       1
    x[26]     c23       1
    x[26]     c26       1
    x[26]     c29       1
    x[26]     c31       1
    x[26]     c40       1
    x[26]     c46       1
    x[26]     c55       1
    x[26]     c75       1
    x[26]     c84       1
    x[26]     c97       1
    x[26]     OBJ       1
    x[27]     c5        1
    x[27]     c9        1
    x[27]     c12       1
    x[27]     c16       1
    x[27]     c27       1
    x[27]     c33       1
    x[27]     c35       1
    x[27]     c40       1
    x[27]     c41       1
    x[27]     c48       1
    x[27]     c63       1
    x[27]     c65       1
    x[27]     c91       1
    x[27]     c100      1
    x[27]     OBJ       1
    x[28]     c22       1
    x[28]     c28       1
    x[28]     c40       1
    x[28]     c64       1
    x[28]     c77       1
    x[28]     OBJ       1
    x[29]     c8        1
    x[29]     c13       1
    x[29]     c14       1
    x[29]     c26       1
    x[29]     c29       1
    x[29]     c32       1
    x[29]     c59       1
    x[29]     c72       1
    x[29]     c75       1
    x[29]     c76       1
    x[29]     c88       1
    x[29]     c96       1
    x[29]     OBJ       1
    x[30]     c30       1
    x[30]     c45       1
    x[30]     c99       1
    x[30]     c100      1
    x[30]     OBJ       1
    x[31]     c1        1
    x[31]     c26       1
    x[31]     c31       1
    x[31]     c37       1
    x[31]     c53       1
    x[31]     c66       1
    x[31]     c76       1
    x[31]     c95       1
    x[31]     OBJ       1
    x[32]     c29       1
    x[32]     c32       1
    x[32]     c46       1
    x[32]     c76       1
    x[32]     c82       1
    x[32]     c97       1
    x[32]     OBJ       1
    x[33]     c4        1
    x[33]     c6        1
    x[33]     c7        1
    x[33]     c15       1
    x[33]     c18       1
    x[33]     c22       1
    x[33]     c27       1
    x[33]     c33       1
    x[33]     c48       1
    x[33]     c74       1
    x[33]     c85       1
    x[33]     c90       1
    x[33]     OBJ       1
    x[34]     c5        1
    x[34]     c14       1
    x[34]     c34       1
    x[34]     c36       1
    x[34]     c37       1
    x[34]     c38       1
    x[34]     c51       1
    x[34]     c58       1
    x[34]     c59       1
    x[34]     c68       1
    x[34]     OBJ       1
    x[35]     c11       1
    x[35]     c12       1
    x[35]     c23       1
    x[35]     c25       1
    x[35]     c27       1
    x[35]     c35       1
    x[35]     c44       1
    x[35]     c45       1
    x[35]     c60       1
    x[35]     c69       1
    x[35]     c78       1
    x[35]     c100      1
    x[35]     OBJ       1
    x[36]     c1        1
    x[36]     c11       1
    x[36]     c34       1
    x[36]     c36       1
    x[36]     c43       1
    x[36]     c49       1
    x[36]     c53       1
    x[36]     c82       1
    x[36]     c89       1
    x[36]     c93       1
    x[36]     c98       1
    x[36]     OBJ       1
    x[37]     c4        1
    x[37]     c7        1
    x[37]     c10       1
    x[37]     c15       1
    x[37]     c23       1
    x[37]     c31       1
    x[37]     c34       1
    x[37]     c37       1
    x[37]     c42       1
    x[37]     c52       1
    x[37]     c59       1
    x[37]     c65       1
    x[37]     c79       1
    x[37]     c88       1
    x[37]     c95       1
    x[37]     OBJ       1
    x[38]     c4        1
    x[38]     c15       1
    x[38]     c34       1
    x[38]     c38       1
    x[38]     c40       1
    x[38]     c62       1
    x[38]     c76       1
    x[38]     c82       1
    x[38]     c87       1
    x[38]     c92       1
    x[38]     OBJ       1
    x[39]     c22       1
    x[39]     c39       1
    x[39]     c53       1
    x[39]     c64       1
    x[39]     c73       1
    x[39]     c79       1
    x[39]     OBJ       1
    x[40]     c1        1
    x[40]     c11       1
    x[40]     c26       1
    x[40]     c27       1
    x[40]     c28       1
    x[40]     c38       1
    x[40]     c40       1
    x[40]     c42       1
    x[40]     c52       1
    x[40]     c87       1
    x[40]     c90       1
    x[40]     OBJ       1
    x[41]     c3        1
    x[41]     c16       1
    x[41]     c18       1
    x[41]     c27       1
    x[41]     c41       1
    x[41]     c61       1
    x[41]     c64       1
    x[41]     c68       1
    x[41]     c69       1
    x[41]     c75       1
    x[41]     c87       1
    x[41]     c89       1
    x[41]     c100      1
    x[41]     OBJ       1
    x[42]     c2        1
    x[42]     c19       1
    x[42]     c37       1
    x[42]     c40       1
    x[42]     c42       1
    x[42]     c48       1
    x[42]     c62       1
    x[42]     c68       1
    x[42]     c72       1
    x[42]     c82       1
    x[42]     c92       1
    x[42]     c95       1
    x[42]     c97       1
    x[42]     OBJ       1
    x[43]     c6        1
    x[43]     c25       1
    x[43]     c36       1
    x[43]     c43       1
    x[43]     c46       1
    x[43]     c76       1
    x[43]     c90       1
    x[43]     OBJ       1
    x[44]     c20       1
    x[44]     c35       1
    x[44]     c44       1
    x[44]     c48       1
    x[44]     c58       1
    x[44]     c68       1
    x[44]     c74       1
    x[44]     c77       1
    x[44]     c80       1
    x[44]     c81       1
    x[44]     c95       1
    x[44]     OBJ       1
    x[45]     c11       1
    x[45]     c14       1
    x[45]     c30       1
    x[45]     c35       1
    x[45]     c45       1
    x[45]     c50       1
    x[45]     c61       1
    x[45]     c70       1
    x[45]     c73       1
    x[45]     c89       1
    x[45]     c98       1
    x[45]     c99       1
    x[45]     OBJ       1
    x[46]     c26       1
    x[46]     c32       1
    x[46]     c43       1
    x[46]     c46       1
    x[46]     c52       1
    x[46]     c57       1
    x[46]     c58       1
    x[46]     c65       1
    x[46]     c67       1
    x[46]     c84       1
    x[46]     c87       1
    x[46]     c88       1
    x[46]     c99       1
    x[46]     OBJ       1
    x[47]     c10       1
    x[47]     c18       1
    x[47]     c19       1
    x[47]     c47       1
    x[47]     c57       1
    x[47]     c58       1
    x[47]     c67       1
    x[47]     c75       1
    x[47]     c77       1
    x[47]     c86       1
    x[47]     c87       1
    x[47]     OBJ       1
    x[48]     c3        1
    x[48]     c10       1
    x[48]     c18       1
    x[48]     c27       1
    x[48]     c33       1
    x[48]     c42       1
    x[48]     c44       1
    x[48]     c48       1
    x[48]     c52       1
    x[48]     c64       1
    x[48]     c75       1
    x[48]     c77       1
    x[48]     c84       1
    x[48]     OBJ       1
    x[49]     c36       1
    x[49]     c49       1
    x[49]     c75       1
    x[49]     c100      1
    x[49]     OBJ       1
    x[50]     c4        1
    x[50]     c45       1
    x[50]     c50       1
    x[50]     c73       1
    x[50]     c78       1
    x[50]     c85       1
    x[50]     c97       1
    x[50]     OBJ       1
    x[51]     c11       1
    x[51]     c23       1
    x[51]     c34       1
    x[51]     c51       1
    x[51]     c55       1
    x[51]     c57       1
    x[51]     c58       1
    x[51]     c73       1
    x[51]     c76       1
    x[51]     c81       1
    x[51]     c91       1
    x[51]     c100      1
    x[51]     OBJ       1
    x[52]     c9        1
    x[52]     c13       1
    x[52]     c23       1
    x[52]     c37       1
    x[52]     c40       1
    x[52]     c46       1
    x[52]     c48       1
    x[52]     c52       1
    x[52]     c60       1
    x[52]     c64       1
    x[52]     c80       1
    x[52]     OBJ       1
    x[53]     c7        1
    x[53]     c12       1
    x[53]     c20       1
    x[53]     c31       1
    x[53]     c36       1
    x[53]     c39       1
    x[53]     c53       1
    x[53]     c55       1
    x[53]     c68       1
    x[53]     c69       1
    x[53]     c72       1
    x[53]     c78       1
    x[53]     c83       1
    x[53]     c87       1
    x[53]     c96       1
    x[53]     OBJ       1
    x[54]     c7        1
    x[54]     c8        1
    x[54]     c21       1
    x[54]     c54       1
    x[54]     OBJ       1
    x[55]     c3        1
    x[55]     c9        1
    x[55]     c11       1
    x[55]     c15       1
    x[55]     c19       1
    x[55]     c26       1
    x[55]     c51       1
    x[55]     c53       1
    x[55]     c55       1
    x[55]     c59       1
    x[55]     c60       1
    x[55]     c67       1
    x[55]     c71       1
    x[55]     c90       1
    x[55]     c93       1
    x[55]     c96       1
    x[55]     OBJ       1
    x[56]     c24       1
    x[56]     c56       1
    x[56]     c77       1
    x[56]     c94       1
    x[56]     OBJ       1
    x[57]     c6        1
    x[57]     c14       1
    x[57]     c46       1
    x[57]     c47       1
    x[57]     c51       1
    x[57]     c57       1
    x[57]     c63       1
    x[57]     c83       1
    x[57]     c91       1
    x[57]     OBJ       1
    x[58]     c5        1
    x[58]     c10       1
    x[58]     c22       1
    x[58]     c34       1
    x[58]     c44       1
    x[58]     c46       1
    x[58]     c47       1
    x[58]     c51       1
    x[58]     c58       1
    x[58]     c71       1
    x[58]     c72       1
    x[58]     c79       1
    x[58]     c81       1
    x[58]     c94       1
    x[58]     c96       1
    x[58]     OBJ       1
    x[59]     c4        1
    x[59]     c23       1
    x[59]     c29       1
    x[59]     c34       1
    x[59]     c37       1
    x[59]     c55       1
    x[59]     c59       1
    x[59]     c64       1
    x[59]     c98       1
    x[59]     OBJ       1
    x[60]     c8        1
    x[60]     c15       1
    x[60]     c35       1
    x[60]     c52       1
    x[60]     c55       1
    x[60]     c60       1
    x[60]     c66       1
    x[60]     c67       1
    x[60]     c74       1
    x[60]     c76       1
    x[60]     OBJ       1
    x[61]     c7        1
    x[61]     c11       1
    x[61]     c41       1
    x[61]     c45       1
    x[61]     c61       1
    x[61]     c71       1
    x[61]     OBJ       1
    x[62]     c5        1
    x[62]     c16       1
    x[62]     c20       1
    x[62]     c38       1
    x[62]     c42       1
    x[62]     c62       1
    x[62]     c77       1
    x[62]     c85       1
    x[62]     c90       1
    x[62]     c95       1
    x[62]     c96       1
    x[62]     OBJ       1
    x[63]     c1        1
    x[63]     c8        1
    x[63]     c21       1
    x[63]     c27       1
    x[63]     c57       1
    x[63]     c63       1
    x[63]     c70       1
    x[63]     c72       1
    x[63]     c100      1
    x[63]     OBJ       1
    x[64]     c3        1
    x[64]     c7        1
    x[64]     c13       1
    x[64]     c17       1
    x[64]     c19       1
    x[64]     c25       1
    x[64]     c28       1
    x[64]     c39       1
    x[64]     c41       1
    x[64]     c48       1
    x[64]     c52       1
    x[64]     c59       1
    x[64]     c64       1
    x[64]     c67       1
    x[64]     c70       1
    x[64]     c78       1
    x[64]     c79       1
    x[64]     c94       1
    x[64]     c95       1
    x[64]     OBJ       1
    x[65]     c2        1
    x[65]     c11       1
    x[65]     c27       1
    x[65]     c37       1
    x[65]     c46       1
    x[65]     c65       1
    x[65]     c68       1
    x[65]     c70       1
    x[65]     c79       1
    x[65]     c90       1
    x[65]     c92       1
    x[65]     c97       1
    x[65]     OBJ       1
    x[66]     c4        1
    x[66]     c31       1
    x[66]     c60       1
    x[66]     c66       1
    x[66]     c73       1
    x[66]     c80       1
    x[66]     c87       1
    x[66]     c97       1
    x[66]     OBJ       1
    x[67]     c6        1
    x[67]     c7        1
    x[67]     c10       1
    x[67]     c21       1
    x[67]     c23       1
    x[67]     c46       1
    x[67]     c47       1
    x[67]     c55       1
    x[67]     c60       1
    x[67]     c64       1
    x[67]     c67       1
    x[67]     c72       1
    x[67]     c77       1
    x[67]     c83       1
    x[67]     OBJ       1
    x[68]     c1        1
    x[68]     c9        1
    x[68]     c14       1
    x[68]     c25       1
    x[68]     c34       1
    x[68]     c41       1
    x[68]     c42       1
    x[68]     c44       1
    x[68]     c53       1
    x[68]     c65       1
    x[68]     c68       1
    x[68]     c71       1
    x[68]     c73       1
    x[68]     c79       1
    x[68]     c88       1
    x[68]     c91       1
    x[68]     c98       1
    x[68]     OBJ       1
    x[69]     c2        1
    x[69]     c10       1
    x[69]     c13       1
    x[69]     c14       1
    x[69]     c35       1
    x[69]     c41       1
    x[69]     c53       1
    x[69]     c69       1
    x[69]     c81       1
    x[69]     c90       1
    x[69]     c100      1
    x[69]     OBJ       1
    x[70]     c6        1
    x[70]     c22       1
    x[70]     c23       1
    x[70]     c25       1
    x[70]     c45       1
    x[70]     c63       1
    x[70]     c64       1
    x[70]     c65       1
    x[70]     c70       1
    x[70]     c88       1
    x[70]     OBJ       1
    x[71]     c7        1
    x[71]     c20       1
    x[71]     c23       1
    x[71]     c55       1
    x[71]     c58       1
    x[71]     c61       1
    x[71]     c68       1
    x[71]     c71       1
    x[71]     c73       1
    x[71]     c77       1
    x[71]     c81       1
    x[71]     c93       1
    x[71]     c96       1
    x[71]     c99       1
    x[71]     c100      1
    x[71]     OBJ       1
    x[72]     c1        1
    x[72]     c11       1
    x[72]     c19       1
    x[72]     c29       1
    x[72]     c42       1
    x[72]     c53       1
    x[72]     c58       1
    x[72]     c63       1
    x[72]     c67       1
    x[72]     c72       1
    x[72]     c89       1
    x[72]     c94       1
    x[72]     OBJ       1
    x[73]     c5        1
    x[73]     c39       1
    x[73]     c45       1
    x[73]     c50       1
    x[73]     c51       1
    x[73]     c66       1
    x[73]     c68       1
    x[73]     c71       1
    x[73]     c73       1
    x[73]     c74       1
    x[73]     c78       1
    x[73]     OBJ       1
    x[74]     c8        1
    x[74]     c11       1
    x[74]     c12       1
    x[74]     c22       1
    x[74]     c33       1
    x[74]     c44       1
    x[74]     c60       1
    x[74]     c73       1
    x[74]     c74       1
    x[74]     c100      1
    x[74]     OBJ       1
    x[75]     c13       1
    x[75]     c26       1
    x[75]     c29       1
    x[75]     c41       1
    x[75]     c47       1
    x[75]     c48       1
    x[75]     c49       1
    x[75]     c75       1
    x[75]     c76       1
    x[75]     c98       1
    x[75]     OBJ       1
    x[76]     c6        1
    x[76]     c11       1
    x[76]     c14       1
    x[76]     c18       1
    x[76]     c29       1
    x[76]     c31       1
    x[76]     c32       1
    x[76]     c38       1
    x[76]     c43       1
    x[76]     c51       1
    x[76]     c60       1
    x[76]     c75       1
    x[76]     c76       1
    x[76]     c91       1
    x[76]     OBJ       1
    x[77]     c23       1
    x[77]     c28       1
    x[77]     c44       1
    x[77]     c47       1
    x[77]     c48       1
    x[77]     c56       1
    x[77]     c62       1
    x[77]     c67       1
    x[77]     c71       1
    x[77]     c77       1
    x[77]     OBJ       1
    x[78]     c35       1
    x[78]     c50       1
    x[78]     c53       1
    x[78]     c64       1
    x[78]     c73       1
    x[78]     c78       1
    x[78]     c86       1
    x[78]     c87       1
    x[78]     OBJ       1
    x[79]     c7        1
    x[79]     c37       1
    x[79]     c39       1
    x[79]     c58       1
    x[79]     c64       1
    x[79]     c65       1
    x[79]     c68       1
    x[79]     c79       1
    x[79]     c82       1
    x[79]     c89       1
    x[79]     OBJ       1
    x[80]     c5        1
    x[80]     c44       1
    x[80]     c52       1
    x[80]     c66       1
    x[80]     c80       1
    x[80]     c84       1
    x[80]     OBJ       1
    x[81]     c15       1
    x[81]     c19       1
    x[81]     c22       1
    x[81]     c44       1
    x[81]     c51       1
    x[81]     c58       1
    x[81]     c69       1
    x[81]     c71       1
    x[81]     c81       1
    x[81]     c94       1
    x[81]     c95       1
    x[81]     OBJ       1
    x[82]     c8        1
    x[82]     c11       1
    x[82]     c15       1
    x[82]     c17       1
    x[82]     c32       1
    x[82]     c36       1
    x[82]     c38       1
    x[82]     c42       1
    x[82]     c79       1
    x[82]     c82       1
    x[82]     c89       1
    x[82]     c92       1
    x[82]     OBJ       1
    x[83]     c13       1
    x[83]     c22       1
    x[83]     c53       1
    x[83]     c57       1
    x[83]     c67       1
    x[83]     c83       1
    x[83]     c92       1
    x[83]     c94       1
    x[83]     OBJ       1
    x[84]     c4        1
    x[84]     c6        1
    x[84]     c12       1
    x[84]     c17       1
    x[84]     c26       1
    x[84]     c46       1
    x[84]     c48       1
    x[84]     c80       1
    x[84]     c84       1
    x[84]     c88       1
    x[84]     OBJ       1
    x[85]     c6        1
    x[85]     c7        1
    x[85]     c15       1
    x[85]     c16       1
    x[85]     c33       1
    x[85]     c50       1
    x[85]     c62       1
    x[85]     c85       1
    x[85]     OBJ       1
    x[86]     c4        1
    x[86]     c5        1
    x[86]     c8        1
    x[86]     c10       1
    x[86]     c11       1
    x[86]     c16       1
    x[86]     c18       1
    x[86]     c47       1
    x[86]     c78       1
    x[86]     c86       1
    x[86]     c89       1
    x[86]     c91       1
    x[86]     c99       1
    x[86]     OBJ       1
    x[87]     c4        1
    x[87]     c15       1
    x[87]     c20       1
    x[87]     c38       1
    x[87]     c40       1
    x[87]     c41       1
    x[87]     c46       1
    x[87]     c47       1
    x[87]     c53       1
    x[87]     c66       1
    x[87]     c78       1
    x[87]     c87       1
    x[87]     OBJ       1
    x[88]     c22       1
    x[88]     c24       1
    x[88]     c29       1
    x[88]     c37       1
    x[88]     c46       1
    x[88]     c68       1
    x[88]     c70       1
    x[88]     c84       1
    x[88]     c88       1
    x[88]     OBJ       1
    x[89]     c14       1
    x[89]     c20       1
    x[89]     c25       1
    x[89]     c36       1
    x[89]     c41       1
    x[89]     c45       1
    x[89]     c72       1
    x[89]     c79       1
    x[89]     c82       1
    x[89]     c86       1
    x[89]     c89       1
    x[89]     c96       1
    x[89]     c98       1
    x[89]     OBJ       1
    x[90]     c1        1
    x[90]     c6        1
    x[90]     c33       1
    x[90]     c40       1
    x[90]     c43       1
    x[90]     c55       1
    x[90]     c62       1
    x[90]     c65       1
    x[90]     c69       1
    x[90]     c90       1
    x[90]     c97       1
    x[90]     c99       1
    x[90]     OBJ       1
    x[91]     c4        1
    x[91]     c8        1
    x[91]     c15       1
    x[91]     c27       1
    x[91]     c51       1
    x[91]     c57       1
    x[91]     c68       1
    x[91]     c76       1
    x[91]     c86       1
    x[91]     c91       1
    x[91]     c96       1
    x[91]     OBJ       1
    x[92]     c38       1
    x[92]     c42       1
    x[92]     c65       1
    x[92]     c82       1
    x[92]     c83       1
    x[92]     c92       1
    x[92]     OBJ       1
    x[93]     c1        1
    x[93]     c4        1
    x[93]     c10       1
    x[93]     c21       1
    x[93]     c36       1
    x[93]     c55       1
    x[93]     c71       1
    x[93]     c93       1
    x[93]     c95       1
    x[93]     OBJ       1
    x[94]     c12       1
    x[94]     c14       1
    x[94]     c17       1
    x[94]     c56       1
    x[94]     c58       1
    x[94]     c64       1
    x[94]     c72       1
    x[94]     c81       1
    x[94]     c83       1
    x[94]     c94       1
    x[94]     OBJ       1
    x[95]     c1        1
    x[95]     c5        1
    x[95]     c13       1
    x[95]     c23       1
    x[95]     c31       1
    x[95]     c37       1
    x[95]     c42       1
    x[95]     c44       1
    x[95]     c62       1
    x[95]     c64       1
    x[95]     c81       1
    x[95]     c93       1
    x[95]     c95       1
    x[95]     c97       1
    x[95]     c99       1
    x[95]     OBJ       1
    x[96]     c15       1
    x[96]     c29       1
    x[96]     c53       1
    x[96]     c55       1
    x[96]     c58       1
    x[96]     c62       1
    x[96]     c71       1
    x[96]     c89       1
    x[96]     c91       1
    x[96]     c96       1
    x[96]     c97       1
    x[96]     OBJ       1
    x[97]     c11       1
    x[97]     c15       1
    x[97]     c16       1
    x[97]     c18       1
    x[97]     c21       1
    x[97]     c26       1
    x[97]     c32       1
    x[97]     c42       1
    x[97]     c50       1
    x[97]     c65       1
    x[97]     c66       1
    x[97]     c90       1
    x[97]     c95       1
    x[97]     c96       1
    x[97]     c97       1
    x[97]     c98       1
    x[97]     OBJ       1
    x[98]     c36       1
    x[98]     c45       1
    x[98]     c59       1
    x[98]     c68       1
    x[98]     c75       1
    x[98]     c89       1
    x[98]     c97       1
    x[98]     c98       1
    x[98]     OBJ       1
    x[99]     c24       1
    x[99]     c25       1
    x[99]     c30       1
    x[99]     c45       1
    x[99]     c46       1
    x[99]     c71       1
    x[99]     c86       1
    x[99]     c90       1
    x[99]     c95       1
    x[99]     c99       1
    x[99]     OBJ       1
    x[100]    c2        1
    x[100]    c7        1
    x[100]    c16       1
    x[100]    c17       1
    x[100]    c19       1
    x[100]    c21       1
    x[100]    c24       1
    x[100]    c27       1
    x[100]    c30       1
    x[100]    c35       1
    x[100]    c41       1
    x[100]    c49       1
    x[100]    c51       1
    x[100]    c63       1
    x[100]    c69       1
    x[100]    c71       1
    x[100]    c74       1
    x[100]    c100      1
    x[100]    OBJ       1
    MARKER    'MARKER'                 'INTEND'
RHS
    rhs       c1        1
    rhs       c2        1
    rhs       c3        1
    rhs       c4        1
    rhs       c5        1
    rhs       c6        1
    rhs       c7        1
    rhs       c8        1
    rhs       c9        1
    rhs       c10       1
    rhs       c11       1
    rhs       c12       1
    rhs       c13       1
    rhs       c14       1
    rhs       c15       1
    rhs       c16       1
    rhs       c17       1
    rhs       c18       1
    rhs       c19       1
    rhs       c20       1
    rhs       c21       1
    rhs       c22       1
    rhs       c23       1
    rhs       c24       1
    rhs       c25       1
    rhs       c26       1
    rhs       c27       1
    rhs       c28       1
    rhs       c29       1
    rhs       c30       1
    rhs       c31       1
    rhs       c32       1
    rhs       c33       1
    rhs       c34       1
    rhs       c35       1
    rhs       c36       1
    rhs       c37       1
    rhs       c38       1
    rhs       c39       1
    rhs       c40       1
    rhs       c41       1
    rhs       c42       1
    rhs       c43       1
    rhs       c44       1
    rhs       c45       1
    rhs       c46       1
    rhs       c47       1
    rhs       c48       1
    rhs       c49       1
    rhs       c50       1
    rhs       c51       1
    rhs       c52       1
    rhs       c53       1
    rhs       c54       1
    rhs       c55       1
    rhs       c56       1
    rhs       c57       1
    rhs       c58       1
    rhs       c59       1
    rhs       c60       1
    rhs       c61       1
    rhs       c62       1
    rhs       c63       1
    rhs       c64       1
    rhs       c65       1
    rhs       c66       1
    rhs       c67       1
    rhs       c68       1
    rhs       c69       1
    rhs       c70       1
    rhs       c71       1
    rhs       c72       1
    rhs       c73       1
    rhs       c74       1
    rhs       c75       1
    rhs       c76       1
    rhs       c77       1
    rhs       c78       1
    rhs       c79       1
    rhs       c80       1
    rhs       c81       1
    rhs       c82       1
    rhs       c83       1
    rhs       c84       1
    rhs       c85       1
    rhs       c86       1
    rhs       c87       1
    rhs       c88       1
    rhs       c89       1
    rhs       c90       1
    rhs       c91       1
    rhs       c92       1
    rhs       c93       1
    rhs       c94       1
    rhs       c95       1
    rhs       c96       1
    rhs       c97       1
    rhs       c98       1
    rhs       c99       1
    rhs       c100      1
RANGES
BOUNDS
 BV bounds    x[1]
 BV bounds    x[2]
 BV bounds    x[3]
 BV bounds    x[4]
 BV bounds    x[5]
 BV bounds    x[6]
 BV bounds    x[7]
 BV bounds    x[8]
 BV bounds    x[9]
 BV bounds    x[10]
 BV bounds    x[11]
 BV bounds    x[12]
 BV bounds    x[13]
 BV bounds    x[14]
 BV bounds    x[15]
 BV bounds    x[16]
 BV bounds    x[17]
 BV bounds    x[18]
 BV bounds    x[19]
 BV bounds    x[20]
 BV bounds    x[21]
 BV bounds    x[22]
 BV bounds    x[23]
 BV bounds    x[24]
 BV bounds    x[25]
 BV bounds    x[26]
 BV bounds    x[27]
 BV bounds    x[28]
 BV bounds    x[29]
 BV bounds    x[30]
 BV bounds    x[31]
 BV bounds    x[32]
 BV bounds    x[33]
 BV bounds    x[34]
 BV bounds    x[35]
 BV bounds    x[36]
 BV bounds    x[37]
 BV bounds    x[38]
 BV bounds    x[39]
 BV bounds    x[40]
 BV bounds    x[41]
 BV bounds    x[42]
 BV bounds    x[43]
 BV bounds    x[44]
 BV bounds    x[45]
 BV bounds    x[46]
 BV bounds    x[47]
 BV bounds    x[48]
 BV bounds    x[49]
 BV bounds    x[50]
 BV bounds    x[51]
 BV bounds    x[52]
 BV bounds    x[53]
 BV bounds    x[54]
 BV bounds    x[55]
 BV bounds    x[56]
 BV bounds    x[57]
 BV bounds    x[58]
 BV bounds    x[59]
 BV bounds    x[60]
 BV bounds    x[61]
 BV bounds    x[62]
 BV bounds    x[63]
 BV bounds    x[64]
 BV bounds    x[65]
 BV bounds    x[66]
 BV bounds    x[67]
 BV bounds    x[68]
 BV bounds    x[69]
 BV bounds    x[70]
 BV bounds    x[71]
 BV bounds    x[72]
 BV bounds    x[73]
 BV bounds    x[74]
 BV bounds    x[75]
 BV bounds    x[76]
 BV bounds    x[77]
 BV bounds    x[78]
 BV bounds    x[79]
 BV bounds    x[80]
 BV bounds    x[81]
 BV bounds    x[82]
 BV bounds    x[83]
 BV bounds    x[84]
 BV bounds    x[85]
 BV bounds    x[86]
 BV bounds    x[87]
 BV bounds    x[88]
 BV bounds    x[89]
 BV bounds    x[90]
 BV bounds    x[91]
 BV bounds    x[92]
 BV bounds    x[93]
 BV bounds    x[94]
 BV bounds    x[95]
 BV bounds    x[96]
 BV bounds    x[97]
 BV bounds    x[98]
 BV bounds    x[99]
 BV bounds    x[100]
ENDATA
